# hf/3-21g opt freq

caffien water

0 1
 C              
 C                  1            B1
 C                  2            B2    1            A1
 C                  1            B3    2            A2    3            D1    0
 C                  1            B4    2            A3    3            D2    0
 H                  5            B5    1            A4    2            D3    0
 N                  1            B6    2            A5    3            D4    0
 N                  3            B7    2            A6    1            D5    0
 N                  5            B8    1            A7    2            D6    0
 N                  5            B9    1            A8    9            D7    0
 C                  7           B10    1            A9    9            D8    0
 H                 11           B11    7           A10    1            D9    0
 H                 11           B12    7           A11    1           D10    0
 H                 11           B13    7           A12    1           D11    0
 C                 10           B14    5           A13    1           D12    0
 H                 15           B15   10           A14    5           D13    0
 H                 15           B16   10           A15    5           D14    0
 H                 15           B17   10           A16    5           D15    0
 C                  8           B18    3           A17    2           D16    0
 H                 19           B19    8           A18    3           D17    0
 H                 19           B20    8           A19    3           D18    0
 H                 19           B21    8           A20    3           D19    0
 O                  4           B22    1           A21    9           D20    0
 O                  3           B23    2           A22    1           D21    0
 O                 23           B24    4           A23    1           D22    0
 H                 25           B25   23           A24    4           D23    0
 H                 25           B26   23           A25    4           D24    0

   B1             1.36190855
   B2             1.42364794
   B3             2.36775579
   B4             2.12302925
   B5             1.06557935
   B6             1.36751085
   B7             1.39224966
   B8             1.32602146
   B9             1.34219991
   B10            1.46601299
   B11            1.07999832
   B12            1.07999703
   B13            1.07487020
   B14            1.45923291
   B15            1.07856447
   B16            1.07856478
   B17            1.07974411
   B18            1.47327398
   B19            1.07905513
   B20            1.07904669
   B21            1.07362998
   B22            1.22964562
   B23            1.23142158
   B24            1.97287641
   B25            0.94925597
   B26            0.94925597
   A1           122.05201645
   A2            91.89712110
   A3            73.72479666
   A4           162.43999900
   A5           122.21307157
   A6           112.75945316
   A7            38.24361190
   A8            74.64430813
   A9           119.99641478
   A10          109.64291375
   A11          109.64215830
   A12          108.11788260
   A13          127.35195579
   A14          110.09734637
   A15          110.09745758
   A16          108.37047095
   A17          116.01597220
   A18          109.48760414
   A19          109.48579845
   A20          108.24409910
   A21          151.70732978
   A22          126.01829691
   A23          109.15418775
   A24          125.46645697
   A25          117.82330788
   D1            -0.00054852
   D2           179.99411054
   D3           179.99717306
   D4             0.00173413
   D5            -0.00722306
   D6           179.97014925
   D7          -179.97457273
   D8            -0.01500523
   D9           -59.86567866
   D10           59.85814519
   D11          179.99570420
   D12         -179.99359571
   D13          119.98622525
   D14         -119.98865744
   D15           -0.00113811
   D16         -179.98527496
   D17          -59.60430233
   D18           59.53979794
   D19          179.96885657
   D20           -0.08221540
   D21         -179.98531095
   D22           88.18443706
   D23          -82.89452376
   D24           72.67406866

 

